
List of user-set options:

                                    Name   Value                used
                        file_print_level = 5                     yes
                   hessian_approximation = limited-memory        yes
                                  hsllib = /home/grant/packages/ThirdParty-HSL/.libs/libcoinhsl.so  yes
                           linear_solver = ma97                  yes
                                max_iter = 10                    yes
                             output_file = IPOPT.out             yes
                             print_level = 5                     yes
                      print_user_options = yes                   yes
                                      sb = yes                   yes
                                     tol = 1e-08                 yes
This is Ipopt version 3.14.7, running with linear solver ma97.

Number of nonzeros in equality constraint Jacobian...:        0
Number of nonzeros in inequality constraint Jacobian.:        5
Number of nonzeros in Lagrangian Hessian.............:        0

Total number of variables............................:        5
                     variables with only lower bounds:        0
                variables with lower and upper bounds:        0
                     variables with only upper bounds:        0
Total number of equality constraints.................:        0
Total number of inequality constraints...............:        1
        inequality constraints with only lower bounds:        0
   inequality constraints with lower and upper bounds:        0
        inequality constraints with only upper bounds:        0

iter    objective    inf_pr   inf_du lg(mu)  ||d||  lg(rg) alpha_du alpha_pr  ls
<<<<<<< HEAD
   0  6.2509719e-01 0.00e+00 1.62e-01   0.0 0.00e+00    -  0.00e+00 0.00e+00   0
   1  5.5730284e-01 0.00e+00 1.73e-01 -11.0 1.62e-01    -  1.00e+00 1.00e+00f  1
   2  4.8366912e-01 0.00e+00 1.84e-01 -11.0 1.73e-01    -  1.00e+00 1.00e+00f  1
   3  4.0158655e-01 0.00e+00 1.89e-01 -11.0 1.84e-01    -  1.00e+00 1.00e+00f  1
   4  3.1463153e-01 0.00e+00 1.96e-01 -11.0 1.89e-01    -  1.00e+00 1.00e+00f  1
   5  2.2239800e-01 0.00e+00 1.97e-01 -11.0 1.96e-01    -  1.00e+00 1.00e+00f  1
   6  1.2786628e-01 0.00e+00 1.97e-01 -11.0 1.97e-01    -  1.00e+00 1.00e+00f  1
   7  3.2274804e-02 0.00e+00 1.97e-01 -11.0 1.97e-01    -  1.00e+00 1.00e+00f  1
   8 -6.5328213e-02 0.00e+00 2.00e-01 -11.0 1.97e-01    -  1.00e+00 1.00e+00f  1
   9 -1.6631043e-01 0.00e+00 2.00e-01 -11.0 2.00e-01    -  1.00e+00 1.00e+00f  1
iter    objective    inf_pr   inf_du lg(mu)  ||d||  lg(rg) alpha_du alpha_pr  ls
  10 -2.7015680e-01 0.00e+00 2.00e-01 -11.0 2.00e-01    -  1.00e+00 1.00e+00f  1

Number of Iterations....: 10

                                   (scaled)                 (unscaled)
Objective...............:  -2.7015679606857201e-01   -2.7015679606857201e-01
Dual infeasibility......:   2.0000000011677344e-01    2.0000000011677344e-01
Constraint violation....:   0.0000000000000000e+00    0.0000000000000000e+00
Variable bound violation:   0.0000000000000000e+00    0.0000000000000000e+00
Complementarity.........:   0.0000000000000000e+00    0.0000000000000000e+00
Overall NLP error.......:   2.0000000011677344e-01    2.0000000011677344e-01
=======
   0 -8.1374967e+02 0.00e+00 1.63e-01   0.0 0.00e+00    -  0.00e+00 0.00e+00   0
   1 -8.1381101e+02 0.00e+00 1.63e-01 -11.0 1.63e-01    -  1.00e+00 1.00e+00f  1
   2 -8.1387236e+02 0.00e+00 1.63e-01 -11.0 1.63e-01    -  1.00e+00 1.00e+00f  1
>>>>>>> working on voronoi

Number of Iterations....: 2

Number of objective function evaluations             = 4
Number of objective gradient evaluations             = 3
Number of equality constraint evaluations            = 0
Number of inequality constraint evaluations          = 4
Number of equality constraint Jacobian evaluations   = 0
Number of inequality constraint Jacobian evaluations = 4
Number of Lagrangian Hessian evaluations             = 0
<<<<<<< HEAD
Total seconds in IPOPT                               = 3.179
=======
Total CPU secs in IPOPT (w/o function evaluations)   =      1.173
Total CPU secs in NLP function evaluations           =      3.367
>>>>>>> working on voronoi

EXIT: Invalid number in NLP function or derivative detected.
